;  time  = {}
;  terms = 20
;  score = -1
;  stdout= {}
(set-logic QF_FP)
(declare-const x0 (_ FloatingPoint 8 24))
(declare-const x1 (_ FloatingPoint 8 24))
(declare-const x2 (_ FloatingPoint 8 24))
(declare-const x3 (_ FloatingPoint 8 24))
(assert (not (fp.isNaN x0)))
(assert (not (fp.isInfinite x0)))
(assert (not (fp.isZero x0)))
(assert (not (fp.isNaN x1)))
(assert (not (fp.isInfinite x1)))
(assert (not (fp.isZero x1)))
(assert (not (fp.isNaN x2)))
(assert (not (fp.isInfinite x2)))
(assert (not (fp.isZero x2)))
(assert (not (fp.isNaN x3)))
(assert (not (fp.isInfinite x3)))
(assert (not (fp.isZero x3)))
(assert (fp.gt (fp.mul RNE (fp.min (fp.min x1 x0) (fp.neg x0)) (fp.min (fp.div RNE x0 x1) (fp.abs x1))) (fp.neg (fp.mul RNE (fp.abs x0) (fp.roundToIntegral RNE x0)))))(check-sat)